(declare-const in71 Int)
(declare-const in62 Int)
(declare-const in61 Int)
(declare-const in42 Int)
(declare-const in64 Int)
(declare-const in41 Int)
(declare-const in63 Int)
(declare-const in21 Int)
(declare-const in43 Int)
(declare-const in65 Int)
(declare-const in02 Int)
(declare-const in01 Int)
(declare-const in04 Int)
(declare-const in03 Int)
(declare-const in06 Int)
(declare-const in05 Int)
(declare-const in07 Int)
(declare-const in51 Int)
(declare-const in73 Int)
(declare-const in72 Int)
(declare-const in31 Int)
(declare-const in53 Int)
(declare-const in75 Int)
(declare-const in52 Int)
(declare-const in74 Int)
(declare-const in32 Int)
(declare-const in54 Int)
(declare-const in76 Int)

(assert (and (and (and (and (and (and (and (and (and (and (and (and (and (and (and (and (and (and (and (and (and (and (and (and (and (and (and (and (and (and (and (and (and (and (and (and (and (and (and (and (and  ( <  in02 in01)  ( <  in03 in02))  ( <  in04 in03))  ( <  in05 in04))  ( <  in06 in05))  ( <  in07 in06))  ( <  ( +  in71 in07) in01))  ( <  ( +  in72 in07) in02))  ( <  ( +  in73 in07) in03))  ( <  ( +  in74 in07) in04))  ( <  ( +  in75 in07) in05))  ( <  ( +  in76 in07) in06))  ( <  ( +  in72 in07) ( +  in71 in07)))  ( <  ( +  in73 in07) ( +  in72 in07)))  ( <  ( +  in74 in07) ( +  in73 in07)))  ( <  ( +  in75 in07) ( +  in74 in07)))  ( <  ( +  in76 in07) ( +  in75 in07)))  ( <  ( +  in61 ( +  in76 in07)) ( +  in71 in07)))  ( <  ( +  in62 ( +  in76 in07)) ( +  in72 in07)))  ( <  ( +  in63 ( +  in76 in07)) ( +  in73 in07)))  ( <  ( +  in64 ( +  in76 in07)) ( +  in74 in07)))  ( <  ( +  in65 ( +  in76 in07)) ( +  in75 in07)))  ( <  ( +  in62 ( +  in76 in07)) ( +  in61 ( +  in76 in07))))  ( <  ( +  in63 ( +  in76 in07)) ( +  in62 ( +  in76 in07))))  ( <  ( +  in64 ( +  in76 in07)) ( +  in63 ( +  in76 in07))))  ( <  ( +  in65 ( +  in76 in07)) ( +  in64 ( +  in76 in07))))  ( <  ( +  in51 ( +  in65 ( +  in76 in07))) ( +  in61 ( +  in76 in07))))  ( <  ( +  in52 ( +  in65 ( +  in76 in07))) ( +  in62 ( +  in76 in07))))  ( <  ( +  in53 ( +  in65 ( +  in76 in07))) ( +  in63 ( +  in76 in07))))  ( <  ( +  in54 ( +  in65 ( +  in76 in07))) ( +  in64 ( +  in76 in07))))  ( <  ( +  in52 ( +  in65 ( +  in76 in07))) ( +  in51 ( +  in65 ( +  in76 in07)))))  ( <  ( +  in53 ( +  in65 ( +  in76 in07))) ( +  in52 ( +  in65 ( +  in76 in07)))))  ( <  ( +  in54 ( +  in65 ( +  in76 in07))) ( +  in53 ( +  in65 ( +  in76 in07)))))  ( <  ( +  in41 ( +  in54 ( +  in65 ( +  in76 in07)))) ( +  in51 ( +  in65 ( +  in76 in07)))))  ( <  ( +  in42 ( +  in54 ( +  in65 ( +  in76 in07)))) ( +  in52 ( +  in65 ( +  in76 in07)))))  ( <  ( +  in43 ( +  in54 ( +  in65 ( +  in76 in07)))) ( +  in53 ( +  in65 ( +  in76 in07)))))  ( <  ( +  in42 ( +  in54 ( +  in65 ( +  in76 in07)))) ( +  in41 ( +  in54 ( +  in65 ( +  in76 in07))))))  ( <  ( +  in43 ( +  in54 ( +  in65 ( +  in76 in07)))) ( +  in42 ( +  in54 ( +  in65 ( +  in76 in07))))))  ( <  ( +  in31 ( +  in43 ( +  in54 ( +  in65 ( +  in76 in07))))) ( +  in41 ( +  in54 ( +  in65 ( +  in76 in07))))))  ( <  ( +  in32 ( +  in43 ( +  in54 ( +  in65 ( +  in76 in07))))) ( +  in42 ( +  in54 ( +  in65 ( +  in76 in07))))))  ( <  ( +  in32 ( +  in43 ( +  in54 ( +  in65 ( +  in76 in07))))) ( +  in31 ( +  in43 ( +  in54 ( +  in65 ( +  in76 in07)))))))  ( <  ( +  in21 ( +  in32 ( +  in43 ( +  in54 ( +  in65 ( +  in76 in07)))))) ( +  in31 ( +  in43 ( +  in54 ( +  in65 ( +  in76 in07))))))))

(check-sat)
(get-model)